proyfinal/src/viki/013/andrea/andrea-localstore/experimentInOfficeAgust.take6/worker_2/d8551d71-07ff-4705-b7ea-7b9334c64bd2.als.cnf.out
Reading from standard input... Use '--help' for help.
============================[ Problem Statistics ]=============================
|                                                                             |
|  Number of variables:         87638                                         |
|  Number of clauses:          161767                                         |
|  Parse time:                   0.04 s                                       |
|                                                                             |
============================[ Search Statistics ]==============================
| Conflicts |          ORIGINAL         |          LEARNT          | Progress |
|           |    Vars  Clauses Literals |    Limit  Clauses Lit/Cl |          |
===============================================================================
|       100 |   61887   103572   258360 |    37976      100     51 | 29.383 % |
|       250 |   61867   103494   258173 |    41774      249    144 | 29.406 % |
|       475 |   61867   103494   258173 |    45951      474    108 | 29.406 % |
|       812 |   61867   103494   258173 |    50546      811    120 | 29.406 % |
|      1318 |   61867   103494   258173 |    55601     1317    112 | 29.406 % |
|      2077 |   61866   103450   258083 |    61161     2072    100 | 29.407 % |
|      3216 |   61689   102746   256397 |    67277     3193     91 | 29.609 % |
|      4924 |   61624   102574   255985 |    74005     4053     92 | 29.683 % |
|      7486 |   61535   102134   254918 |    81405     6576     97 | 29.785 % |
|     11330 |   50403    69634   175192 |    89546     8653     86 | 42.487 % |
===============================================================================
restarts              : 62
conflicts             : 14671          (7799 /sec)
decisions             : 46092          (0.00 % random) (24504 /sec)
propagations          : 18241503       (9697645 /sec)
conflict literals     : 1132279        (45.50 % deleted)
Memory used           : 43.43 MB
CPU time              : 1.88102 s

UNSATISFIABLE
